%nprocshared=16
%mem=32GB
#p opt=(ts,noeigentest,calcfc) b3lyp/6-31g*
geom=connectivity freq=noraman scrf=(pcm,solvent=toluene)

[No Title]

-1 1
 C                 -0.00000071    0.00000086   -0.60540971
 Br                 0.09583716   -0.11477127    1.29872841
 H                 -0.00000000    1.07000073   -0.60540995
 H                  0.92664611   -0.53500002   -0.60540937
 H                 -0.92664899   -0.53499765   -0.60540982
 Cl                 0.08831083   -0.10575799   -2.36000847

 1 2 1.0 5 1.0 3 1.0 4 1.0 6 1.0
 2
 3
 4
 5
 6

